<number of tasks>
20

<cycle time>
1000

<order strength>
0,584


<task times>
1 144
2 191
3 62
4 46
5 115
6 54
7 165
8 193
9 178
10 421
11 29
12 141
13 144
14 237
15 249
16 130
17 61
18 218
19 116
20 51

<precedence relations>
1,12
2,7
2,8
3,8
4,5
4,6
4,11
4,13
5,12
6,12
7,9
7,11
7,13
7,14
8,10
9,12
10,12
10,13
10,14
11,12
12,15
12,16
12,17
12,18
13,19
15,19
15,20
17,20

<end>
